p cnf 15 20
-15 -14 -8 0
15 -14 7 0
15 -6 5 0
15 -5 1 0
-14 -12 3 0
14 9 8 0
-14 8 2 0
-14 -7 -3 0
-14 -4 1 0
13 5 2 0
12 -10 7 0
-12 -10 -3 0
-12 8 7 0
-12 8 -3 0
12 -3 -1 0
11 -3 2 0
-9 -6 3 0
8 -6 -4 0
7 6 1 0
6 3 1 0
